43057
160,163,159,158,157,91,90,81,82,80,79,83,78,77,76,75,74,68,73,72,71,70,69,54,55,52,51,30,31,32,33,34,53,56,57,58,59,60,61,62,63,64,65,66,67,84,85,86,89,87,92,93,94,88,156,102,98,97,96,95,100,101,113,114,115,116,117,168,167,125,122,121,112,119,120,124,131,129,130,39,123,118,38,40,41,103,104,105,106,107,108,109,110,111,99,50,48,49,47,46,45,42,44,43,35,36,37,128,127,137,29,28,27,26,20,21,19,12,15,13,14,16,3,1,2,5,4,8,6,7,9,10,17,18,11,22,23,24,25,146,155,153,152,154,147,145,144,142,138,139,143,140,132,126,133,134,136,184,141,185,186,187,148,149,150,151,197,199,201,202,200,198,194,196,195,183,182,179,181,180,178,174,176,177,189,193,191,192,190,188,175,173,171,135,170,169,164,165,172,166,162,161,160
